%grid with black boxes
board= [
  _, 0, _, _, _, _, 0,
  _, _, _, 0, _, _, _,
  _, 0, _, _, _, _, 0,
  0, 0, _, _, _, 0, _,
  _, _, _, 0, _, _, _,
  ];
  
%segments of words
segments= [|
  1,  8, 15,  0,  0| %1v
  3,  4,   5,  6, 0| %2h
  3, 10, 17, 24, 30| %2v
  5, 12, 19, 26, 33| %3v
  6, 13, 20,  0,  0| %4v
  8,  9,  10,  0, 0| %5h
  12, 13, 14,  0, 0| %6h
  17, 18, 19, 20, 0| %7h
  18,25,  0,  0,  0| %8v
  24, 25, 26,  0, 0| %9h
  28,35,  0,  0,  0| %10v
  29, 30, 31,  0, 0| %11h
  33, 34, 35,  0, 0| %12h
  |];
  
%inputs
rows= 5;
columns= 7;
r= 1;
s= 32;
max_length_seg= 5; %length of the longest segment of numbers
solutions_vector= [12, 25, 29, 16, 32, 29, 23, 32, 21, 21, 31, 7, 24];
sol_card=13;
